User:   jinho93@DESKTOP-K08CHHF
Date:   Fri Apr 14 19:32:16 2023
Arch:   x86_64
Pid:    6186
CWD:    /home/jinho93/git/polar_clustering
Python: 3.10.10
gpaw:   /home/jinho93/mambaforge/envs/torch-learn/lib/python3.10/site-packages/gpaw
_gpaw:  /home/jinho93/mambaforge/envs/torch-learn/lib/python3.10/site-packages/
        _gpaw.cpython-310-x86_64-linux-gnu.so
ase:    /home/jinho93/mambaforge/envs/torch-learn/lib/python3.10/site-packages/ase (version 3.22.1)
numpy:  /home/jinho93/mambaforge/envs/torch-learn/lib/python3.10/site-packages/numpy (version 1.23.5)
scipy:  /home/jinho93/mambaforge/envs/torch-learn/lib/python3.10/site-packages/scipy (version 1.10.1)
units:  Angstrom and eV
cores: 1
OpenMP: True
OMP_NUM_THREADS: 1

Input parameters:
  kpts: {gamma: True,
         size: (2, 2, 2)}
  mode: {ecut: 300.0,
         name: pw}
  occupations: {fixmagmom: False,
                name: fermi-dirac,
                width: 0.1}
  spinpol: False
  xc: PBE

System changes: positions, numbers, cell, pbc, initial_charges, initial_magmoms

Initialize ...

species:
  Ba:
    name: Barium
    id: 3c0c69fceb001740075f2c7491402c79
    Z: 56.0
    valence: 10
    core: 46
    charge: 0.0
    file: /home/jinho93/mambaforge/envs/torch-learn/share/gpaw/Ba.PBE.gz
    compensation charges: {type: gauss,
                           rc: 0.37,
                           lmax: 2}
    cutoffs: {filter: 2.06,
              core: 2.33}
    valence states:
      #              energy  rcut
      - 5s(2.00)   -33.644   1.164
      - 6s(2.00)    -3.229   1.164
      - 5p(6.00)   -18.744   1.164
      -  p           0.000   1.164
      -  d           0.000   1.164
      -  d          27.211   1.164

    # Using partial waves for Ba as LCAO basis

  Sr:
    name: Strontium
    id: 1681cef0785a8ddd65899c0215808a0d
    Z: 38.0
    valence: 10
    core: 28
    charge: 0.0
    file: /home/jinho93/mambaforge/envs/torch-learn/share/gpaw/Sr.PBE.gz
    compensation charges: {type: gauss,
                           rc: 0.40,
                           lmax: 2}
    cutoffs: {filter: 2.39,
              core: 1.85}
    valence states:
      #              energy  rcut
      - 4s(2.00)   -40.883   1.291
      - 5s(2.00)    -3.525   1.291
      - 4p(6.00)   -22.826   1.291
      -  p           4.386   1.291
      -  d           0.000   1.254

[...]

  Ti:
    name: Titanium
    id: d282db07e62ae71292040bf25b25ccdd
    Z: 22.0
    valence: 12
    core: 10
    charge: 0.0
    file: /home/jinho93/mambaforge/envs/torch-learn/share/gpaw/Ti.PBE.gz
    compensation charges: {type: gauss,
                           rc: 0.38,
                           lmax: 2}
    cutoffs: {filter: 2.23,
              core: 1.02}
    valence states:
      #              energy  rcut
      - 3s(2.00)   -62.623   1.270
      - 4s(2.00)    -4.466   1.270
      - 3p(6.00)   -38.862   1.058
      - 4p(0.00)    -1.466   1.058
      - 3d(2.00)    -4.258   1.058
      -  d          22.953   1.058

[...]

  O:
    name: Oxygen
    id: 32ecd46bf208036f09c70b0ec9a88b78
    Z: 8.0
    valence: 6
    core: 2
    charge: 0.0
    file: /home/jinho93/mambaforge/envs/torch-learn/share/gpaw/O.PBE.gz
    compensation charges: {type: gauss,
                           rc: 0.21,
                           lmax: 2}
    cutoffs: {filter: 1.17,
              core: 0.83}
    valence states:
      #              energy  rcut
      - 2s(2.00)   -23.961   0.688
      - 2p(4.00)    -9.029   0.598
      -  s           3.251   0.688
      -  p          18.182   0.598
      -  d           0.000   0.619

    # Using partial waves for O as LCAO basis

Reference energy: -1465871.019556  # eV

Spin-paired calculation

Convergence criteria:
 Maximum [total energy] change in last 3 cyles: 0.0005 eV / electron
 Maximum integral of absolute [dens]ity change: 0.0001 electrons / valence electron
 Maximum integral of absolute [eigenst]ate change: 4e-08 eV^2 / valence electron
 Maximum number of scf [iter]ations: 333
 (Square brackets indicate name in SCF output, whereas a 'c' in
 the SCF output indicates the quantity has converged.)

Symmetries present (total): 1

  ( 1  0  0)
  ( 0  1  0)
  ( 0  0  1)

8 k-points: 2 x 2 x 2 Monkhorst-Pack grid + [1/4,1/4,1/4]
8 k-points in the irreducible part of the Brillouin zone
       k-points in crystal coordinates                weights
   0:     0.00000000    0.00000000    0.00000000          1/8
   1:     0.00000000    0.00000000    0.50000000          1/8
   2:     0.00000000    0.50000000    0.00000000          1/8
   3:     0.00000000    0.50000000    0.50000000          1/8
   4:     0.50000000    0.00000000    0.00000000          1/8
   5:     0.50000000    0.00000000    0.50000000          1/8
   6:     0.50000000    0.50000000    0.00000000          1/8
   7:     0.50000000    0.50000000    0.50000000          1/8

Wave functions: Plane wave expansion
  Cutoff energy: 300.000 eV
  Number of coefficients (min, max): 5790, 5840
  Pulay-stress correction: 0.000000 eV/Ang^3 (de/decut=0.000000)
  Using FFTW library
  ScaLapack parameters: grid=1x1, blocksize=None
  Wavefunction extrapolation:
    Improved wavefunction reuse through dual PAW basis

Occupation numbers: Fermi-Dirac:
  width: 0.1000  # eV

Eigensolver
   Davidson(niter=2)

Densities:
  Coarse grid: 35*32*32 grid
  Fine grid: 70*64*64 grid
  Total Charge: 0.000000

Density mixing:
  Method: separate
  Backend: pulay
  Linear mixing parameter: 0.05
  old densities: 5
  Damping of long wavelength oscillations: 50

Hamiltonian:
  XC and Coulomb potentials evaluated on a 70*64*64 grid
  Using the PBE Exchange-Correlation functional
  External potential:
    NoExternalPotential

XC parameters: PBE with 2 nearest neighbor stencil

Total number of cores used: 1

Number of atoms: 40
Number of atomic orbitals: 240
Number of bands in calculation: 196
Number of valence electrons: 320
Bands to converge: occupied

... initialized

Initializing position-dependent things.

Density initialized from atomic densities
Creating initial wave functions:
  196 bands from LCAO basis set

   / O|   Ti   O    Ti    |
  /   |  O         O      |
 |O   |Ti O O    Ti O     |
 |    O      Sr O      Ba |
 |   O|O  Ti   O O  Ti    |
 |    |  O Ba      O Sr   |
 |O  / Ti O O    Ti O    /
 |  / O      Ba O      Sr
 | /   O         O     /
 |/        Sr        Ba

Positions:
   0 Ba     7.997520    0.116016    0.368156    ( 0.0000,  0.0000,  0.0000)
   1 Ba     7.997745    4.021189    4.273342    ( 0.0000,  0.0000,  0.0000)
   2 Ba     3.976850    4.021186    0.368101    ( 0.0000,  0.0000,  0.0000)
   3 Ba     3.976821    0.115967    4.273308    ( 0.0000,  0.0000,  0.0000)
   4 Sr     3.938956    0.116069    0.367603    ( 0.0000,  0.0000,  0.0000)
   5 Sr     7.959950    4.020127    0.367926    ( 0.0000,  0.0000,  0.0000)
   6 Sr     7.960054    0.116229    4.271722    ( 0.0000,  0.0000,  0.0000)
   7 Sr     3.939966    4.020245    4.271905    ( 0.0000,  0.0000,  0.0000)
   8 Ti     5.938804    2.068125    2.320098    ( 0.0000,  0.0000,  0.0000)
   9 Ti     1.918213    2.068215    2.320121    ( 0.0000,  0.0000,  0.0000)
  10 Ti     5.938802    5.973609    2.320099    ( 0.0000,  0.0000,  0.0000)
  11 Ti     1.918150    5.973604    2.320171    ( 0.0000,  0.0000,  0.0000)
  12 Ti     5.938763    2.068126    6.225421    ( 0.0000,  0.0000,  0.0000)
  13 Ti     1.918080    2.068248    6.225427    ( 0.0000,  0.0000,  0.0000)
  14 Ti     5.938785    5.973653    6.225477    ( 0.0000,  0.0000,  0.0000)
  15 Ti     1.918016    5.973581    6.225428    ( 0.0000,  0.0000,  0.0000)
  16 O      0.029939    2.068398    2.320559    ( 0.0000,  0.0000,  0.0000)
  17 O      4.050778    2.068689    2.321428    ( 0.0000,  0.0000,  0.0000)
  18 O      0.030147    5.973991    2.321193    ( 0.0000,  0.0000,  0.0000)
  19 O      4.051045    5.973728    2.320691    ( 0.0000,  0.0000,  0.0000)
  20 O      0.030136    2.068878    6.226894    ( 0.0000,  0.0000,  0.0000)
  21 O      4.051012    2.068115    6.226060    ( 0.0000,  0.0000,  0.0000)
  22 O      0.030349    5.973513    6.226328    ( 0.0000,  0.0000,  0.0000)
  23 O      4.051281    5.974298    6.226808    ( 0.0000,  0.0000,  0.0000)
  24 O      6.053960    0.116160    2.329188    ( 0.0000,  0.0000,  0.0000)
  25 O      2.032984    0.116311    2.313606    ( 0.0000,  0.0000,  0.0000)
  26 O      6.053913    4.021104    2.313389    ( 0.0000,  0.0000,  0.0000)
  27 O      2.033033    4.021282    2.328943    ( 0.0000,  0.0000,  0.0000)
  28 O      6.054288    0.116157    6.218568    ( 0.0000,  0.0000,  0.0000)
  29 O      2.033253    0.116323    6.234714    ( 0.0000,  0.0000,  0.0000)
  30 O      6.054021    4.021133    6.234839    ( 0.0000,  0.0000,  0.0000)
  31 O      2.033398    4.021299    6.218947    ( 0.0000,  0.0000,  0.0000)
  32 O      6.052962    2.074646    0.368857    ( 0.0000,  0.0000,  0.0000)
  33 O      2.033130    2.061807    0.368871    ( 0.0000,  0.0000,  0.0000)
  34 O      6.053966    5.967099    0.368863    ( 0.0000,  0.0000,  0.0000)
  35 O      2.032972    5.981058    0.368899    ( 0.0000,  0.0000,  0.0000)
  36 O      6.053922    2.061877    4.273785    ( 0.0000,  0.0000,  0.0000)
  37 O      2.032245    2.075103    4.273827    ( 0.0000,  0.0000,  0.0000)
  38 O      6.053493    5.980371    4.273827    ( 0.0000,  0.0000,  0.0000)
  39 O      2.033076    5.967222    4.273863    ( 0.0000,  0.0000,  0.0000)

Unit cell:
           periodic     x           y           z      points  spacing
  1. axis:    yes    8.041489    0.000000    0.000000    35     0.2298
  2. axis:    yes    0.000000    7.810000    0.000000    32     0.2441
  3. axis:    yes    0.000000    0.000000    7.810000    32     0.2441

  Lengths:   8.041489   7.810000   7.810000
  Angles:   90.000000  90.000000  90.000000

Effective grid spacing dv^(1/3) = 0.2392

     iter     time        total  log10-change:
                         energy  eigst   dens
iter:   1 19:33:33  -162.781387
iter:   2 19:33:45  -158.740396  -0.77  -1.02
iter:   3 19:33:56  -147.415436  -0.65  -1.08
iter:   4 19:34:07  -152.153875  -0.63  -1.32
iter:   5 19:34:19  -165.112128  -0.35  -1.50
iter:   6 19:34:30  -145.761903  -1.04  -1.21
iter:   7 19:34:42  -146.413364  -0.94  -1.77
iter:   8 19:34:54  -145.167566  -2.10  -1.87
iter:   9 19:35:05  -145.135800  -3.48  -2.11
iter:  10 19:35:17  -145.093633c -2.36  -2.14
iter:  11 19:35:28  -145.031362c -3.57  -2.49
iter:  12 19:35:40  -145.033593c -4.28  -2.70
iter:  13 19:35:51  -145.039058c -4.76  -2.75
iter:  14 19:36:02  -145.024256c -3.35  -2.70
iter:  15 19:36:14  -145.023223c -4.43  -3.08
iter:  16 19:36:25  -145.022661c -5.28  -3.16
iter:  17 19:36:36  -145.022566c -5.64  -3.20
iter:  18 19:36:48  -145.021378c -4.63  -3.25
iter:  19 19:36:59  -145.021377c -5.71  -3.82
iter:  20 19:37:11  -145.021371c -6.61  -4.04c
iter:  21 19:37:22  -145.021367c -6.75  -4.13c
iter:  22 19:37:34  -145.021368c -6.49  -4.26c
iter:  23 19:37:46  -145.021364c -7.02  -4.15c
iter:  24 19:37:57  -145.021365c -7.33  -4.33c
iter:  25 19:38:09  -145.021363c -7.62c -4.40c

Converged after 25 iterations.

Dipole moment: (6.325493, -59.535433, -88.999959) |e|*Ang

Energy contributions relative to reference atoms: (reference = -1465871.019556)

Kinetic:       -344.118721
Potential:     +447.901332
External:        +0.000000
XC:            -252.146913
Entropy (-ST):   -0.000612
Local:           +3.343245
Free energy:   -145.021670
Extrapolated:  -145.021363

Showing only first 2 kpts
 Kpt  Band  Eigenvalues  Occupancy
  0   158      7.77146    1.99953
  0   159      7.78034    1.99949
  0   160      9.37046    0.00097
  0   161      9.52012    0.00022

  1   158      7.59817    1.99992
  1   159      7.59923    1.99992
  1   160      9.67337    0.00005
  1   161      9.67577    0.00005

Fermi level: 8.60688

Gap: 1.590 eV
Transition (v -> c):
  (s=0, k=0, n=159, [0.00, 0.00, 0.00]) -> (s=0, k=0, n=160, [0.00, 0.00, 0.00])